unsat
(define-fun SC ((s (_ BitVec 4)) (t (_ BitVec 4))) Bool (bvsge (bvor #b0111 s) t))
1.27user 0.00system 0:01.28elapsed 99%CPU (0avgtext+0avgdata 33332maxresident)k
8inputs+8outputs (0major+2891minor)pagefaults 0swaps
